
  12    4
  10   10   10   10

   0   0   0   0   0   2 2 4 
   3  10  10  10  10   1 3 
   6  10  10  10  10   2 8 5 
   5  10  10  10  10   2 8 5 
   2  10  10  10  10   2 7 6 
   1  10  10  10  10   2 11 10 
   4  10  10  10  10   1 9 
   8  10  10  10  10   1 9 
   4  10  10  10  10   1 12
   4  10  10  10  10   1 12
  10  10  10  10  10   1 12
   0   0   0   0   0   0 
